
Gurobi 6.5.2 (linux64) logging started Wed Aug 31 10:35:29 2016

Optimize a model with 101 rows, 908 columns and 1825 nonzeros
Coefficient statistics:
  Matrix range    [1e+00, 2e+00]
  Objective range [1e+00, 1e+02]
  Bounds range    [1e+00, 1e+00]
  RHS range       [1e+00, 1e+00]
Found heuristic solution: objective 2730
Presolve removed 47 rows and 42 columns
Presolve time: 0.00s
Presolved: 54 rows, 866 columns, 1735 nonzeros
Variable types: 0 continuous, 866 integer (866 binary)

Root relaxation: objective 7.350000e+02, 82 iterations, 0.00 seconds

    Nodes    |    Current Node    |     Objective Bounds      |     Work
 Expl Unexpl |  Obj  Depth IntInf | Incumbent    BestBd   Gap | It/Node Time

*    0     0               0     735.0000000  735.00000  0.00%     -    0s

Explored 0 nodes (82 simplex iterations) in 0.01 seconds
Thread count was 8 (of 8 available processors)

Optimal solution found (tolerance 1.00e-04)
Best objective 7.350000000000e+02, best bound 7.350000000000e+02, gap 0.0%
